n = 100;
C = 483;
w = [975,726,61,638,150,378,767,571,524,942,444,431,709,434,260,485,992,466,416,340,769,800,620,310,912,832,284,187,695,339,412,563,752,157,990,495,29,120,304,321,630,390,283,207,199,898,246,700,23,256,200,695,3,529,482,874,248,736,315,940,12,511,33,711,406,243,911,11,593,939,338,489,397,941,2,241,150,673,799,981,331,853,738,84,768,359,967,24,541,638,418,375,533,369,15,606,296,846,208,497];
p = [1007,638,7,661,229,296,724,487,449,888,402,333,669,378,257,572,1039,414,454,390,849,867,570,349,837,873,318,261,697,429,445,518,801,182,963,494,59,212,254,359,657,363,233,146,204,956,308,604,116,223,264,606,75,440,397,883,304,719,389,919,13,546,126,763,346,305,949,-52,649,913,264,450,337,1010,-32,258,172,771,845,1078,418,843,787,57,700,383,918,37,483,568,515,397,568,322,48,557,260,910,303,525];
